c
c start with comments
c
p cnf 28 31
-27 21 -22 0
-16 -17 -27 -8 0
-28 -19 -11 0
25 25 -27 -19 0
-22 -19 17 12 0
-3 -10 -19 -14 -13 0
-6 24 -18 0
11 17 23 -16 -11 0
16 21 23 0
-1 10 -4 0
-2 -13 5 0
2 23 18 -4 0
3 19 26 8 6 -8 0
-7 -26 0
-28 -9 -16 9 -8 20 0
1 26 -3 -19 0
2 14 -6 -17 0
22 -6 0
8 -3 -25 0
-26 -26 21 11 0
-8 6 0
-21 -8 15 0
4 18 4 -24 -26 0
-26 4 -5 0
-6 4 -17 0
-26 23 -21 2 -4 7 0
28 13 0
3 -18 6 15 -12 21 0
20 25 22 0
-9 19 24 2 22 0
21 21 28 0